33D32945 STP File, STP Format Version 1.0
SECTION Comment
    Name    "Traversed Topology"
    Creator "Ruben Eschauzier"
    Problem "SAP"
    Remark  "Traversed topology during Link Traversal-based Query Processing"
    END

SECTION Graph 
Nodes 126
Arcs 131
A 1 2 1
A 1 3 1
A 2 4 1
A 2 5 1
A 2 3 1
A 2 6 1
A 2 7 1
A 3 8 1
A 3 9 1
A 3 10 1
A 3 11 1
A 3 12 1
A 3 13 1
A 3 14 1
A 3 15 1
A 3 16 1
A 3 17 1
A 3 18 1
A 3 19 1
A 3 20 1
A 3 21 1
A 3 22 1
A 3 23 1
A 3 24 1
A 3 25 1
A 3 26 1
A 3 27 1
A 3 28 1
A 3 29 1
A 3 30 1
A 3 31 1
A 3 32 1
A 3 33 1
A 3 34 1
A 3 35 1
A 3 36 1
A 3 37 1
A 3 38 1
A 3 39 1
A 3 40 1
A 3 41 1
A 3 42 1
A 3 43 1
A 3 44 1
A 4 1 1
A 5 56 1
A 5 57 1
A 5 58 1
A 5 59 1
A 5 60 1
A 5 61 1
A 5 62 1
A 5 63 1
A 5 64 1
A 5 65 1
A 5 66 1
A 5 67 1
A 5 68 1
A 5 69 1
A 5 70 1
A 5 71 1
A 5 72 1
A 5 73 1
A 5 74 1
A 5 75 1
A 5 76 1
A 5 77 1
A 5 78 1
A 5 79 1
A 5 80 1
A 5 81 1
A 5 82 1
A 5 83 1
A 5 84 1
A 5 85 1
A 5 86 1
A 5 87 1
A 5 88 1
A 5 89 1
A 5 90 1
A 5 91 1
A 5 92 1
A 5 93 1
A 5 94 1
A 6 45 1
A 7 47 1
A 7 48 1
A 7 49 1
A 7 50 1
A 7 51 1
A 7 52 1
A 7 53 1
A 7 54 1
A 7 55 1
A 8 46 1
A 9 95 1
A 10 100 1
A 11 99 1
A 12 102 1
A 13 98 1
A 14 97 1
A 15 96 1
A 16 101 1
A 17 126 1
A 18 121 1
A 19 111 1
A 20 99 1
A 21 108 1
A 22 122 1
A 23 103 1
A 24 109 1
A 25 123 1
A 26 125 1
A 27 99 1
A 28 124 1
A 29 121 1
A 30 112 1
A 31 107 1
A 32 114 1
A 33 119 1
A 34 113 1
A 35 105 1
A 36 99 1
A 37 117 1
A 38 104 1
A 39 115 1
A 40 116 1
A 41 106 1
A 42 110 1
A 43 120 1
A 44 118 1
END

SECTION Terminals
Terminals 4
Root 1
T 1
T 18
T 20
T 29
END

EOF